language Essence 1.3

letting blksize_delta be
        function(1 --> 7, 2 --> 6, 3 --> 6, 4 --> 6, 5 --> 6, 6 --> 7, 7 --> 6, 8 --> 6, 9 --> 6, 10 --> 7)
letting maxcars be function(1 --> 9, 2 --> 9, 3 --> 9, 4 --> 9, 5 --> 10, 6 --> 9, 7 --> 9, 8 --> 9, 9 --> 10, 10 --> 9)
letting n_cars be 212
letting n_classes be 86
letting n_options be 10
letting quantity be
        function(1 --> 22, 2 --> 18, 3 --> 2, 4 --> 2, 5 --> 2, 6 --> 3, 7 --> 2, 8 --> 2, 9 --> 4, 10 --> 3, 11 --> 2,
                 12 --> 2, 13 --> 2, 14 --> 2, 15 --> 2, 16 --> 2, 17 --> 2, 18 --> 2, 19 --> 2, 20 --> 2, 21 --> 2,
                 22 --> 2, 23 --> 2, 24 --> 2, 25 --> 2, 26 --> 2, 27 --> 2, 28 --> 2, 29 --> 2, 30 --> 2, 31 --> 2,
                 32 --> 2, 33 --> 2, 34 --> 2, 35 --> 2, 36 --> 2, 37 --> 2, 38 --> 2, 39 --> 2, 40 --> 2, 41 --> 2,
                 42 --> 2, 43 --> 2, 44 --> 2, 45 --> 2, 46 --> 2, 47 --> 2, 48 --> 2, 49 --> 2, 50 --> 2, 51 --> 2,
                 52 --> 2, 53 --> 2, 54 --> 2, 55 --> 2, 56 --> 2, 57 --> 2, 58 --> 2, 59 --> 2, 60 --> 2, 61 --> 2,
                 62 --> 2, 63 --> 2, 64 --> 2, 65 --> 2, 66 --> 2, 67 --> 2, 68 --> 2, 69 --> 2, 70 --> 2, 71 --> 2,
                 72 --> 2, 73 --> 2, 74 --> 2, 75 --> 2, 76 --> 2, 77 --> 2, 78 --> 2, 79 --> 2, 80 --> 2, 81 --> 2,
                 82 --> 2, 83 --> 2, 84 --> 2, 85 --> 2, 86 --> 2)
letting usage be
        relation((1, 2), (1, 3), (1, 5), (1, 6), (1, 8), (1, 10), (2, 4), (2, 6), (2, 9), (3, 1), (3, 5), (3, 8),
                 (4, 2), (4, 3), (4, 4), (4, 8), (4, 10), (5, 4), (5, 7), (6, 2), (6, 3), (6, 7), (6, 10), (7, 1),
                 (7, 3), (7, 4), (7, 5), (7, 9), (8, 6), (8, 7), (8, 8), (8, 9), (8, 10), (9, 1), (9, 2), (9, 4),
                 (9, 5), (9, 7), (9, 10), (10, 2), (10, 3), (11, 3), (11, 5), (11, 7), (11, 8), (11, 9), (12, 2),
                 (12, 3), (13, 1), (13, 2), (13, 3), (13, 4), (13, 9), (14, 1), (14, 4), (14, 6), (14, 8), (14, 10),
                 (15, 3), (15, 5), (15, 10), (16, 6), (16, 8), (17, 7), (18, 1), (18, 2), (18, 3), (18, 4), (18, 5),
                 (18, 7), (18, 10), (19, 6), (19, 8), (19, 10), (20, 1), (20, 7), (21, 1), (21, 2), (22, 1), (22, 2),
                 (22, 9), (23, 1), (23, 3), (24, 5), (24, 6), (24, 9), (25, 2), (25, 3), (25, 4), (25, 7), (25, 8),
                 (25, 9), (26, 1), (26, 3), (26, 4), (26, 5), (26, 8), (27, 1), (27, 2), (27, 9), (27, 10), (28, 1),
                 (28, 3), (28, 4), (28, 5), (28, 6), (28, 7), (28, 8), (29, 1), (29, 3), (29, 5), (29, 8), (29, 9),
                 (29, 10), (30, 2), (30, 3), (30, 4), (30, 7), (30, 9), (31, 1), (31, 2), (31, 7), (31, 9), (32, 2),
                 (32, 6), (32, 8), (32, 9), (33, 2), (33, 8), (33, 9), (34, 1), (34, 3), (34, 7), (35, 3), (35, 4),
                 (35, 6), (35, 7), (36, 7), (36, 8), (36, 9), (36, 10), (37, 3), (37, 6), (37, 7), (37, 8), (37, 9),
                 (37, 10), (38, 1), (38, 3), (38, 5), (38, 6), (38, 7), (38, 8), (38, 10), (39, 1), (39, 4), (39, 5),
                 (39, 6), (39, 7), (39, 10), (40, 2), (40, 4), (40, 5), (40, 7), (40, 8), (40, 10), (41, 2), (41, 3),
                 (41, 8), (41, 9), (42, 9), (42, 10), (43, 2), (43, 9), (44, 1), (44, 2), (44, 7), (45, 1), (45, 2),
                 (45, 3), (46, 2), (46, 3), (46, 4), (46, 9), (46, 10), (47, 1), (47, 2), (47, 3), (47, 5), (47, 6),
                 (47, 7), (47, 8), (47, 9), (47, 10), (48, 1), (48, 2), (48, 3), (48, 4), (48, 6), (48, 7), (49, 1),
                 (49, 5), (49, 6), (49, 7), (49, 10), (50, 1), (50, 4), (50, 7), (50, 9), (51, 2), (51, 4), (51, 8),
                 (52, 5), (52, 7), (52, 8), (53, 2), (53, 3), (53, 8), (53, 10), (54, 1), (54, 4), (54, 5), (54, 6),
                 (55, 1), (55, 2), (55, 3), (55, 4), (55, 6), (55, 9), (55, 10), (56, 2), (56, 3), (56, 5), (56, 6),
                 (57, 2), (57, 4), (57, 7), (57, 8), (57, 9), (58, 1), (58, 3), (58, 6), (58, 7), (58, 9), (58, 10),
                 (59, 4), (59, 6), (59, 7), (59, 8), (60, 2), (60, 4), (60, 5), (60, 7), (60, 10), (61, 4), (61, 6),
                 (61, 8), (61, 9), (62, 4), (62, 7), (62, 8), (63, 3), (63, 4), (63, 6), (63, 8), (63, 9), (64, 2),
                 (64, 3), (64, 6), (65, 1), (65, 7), (65, 8), (66, 1), (66, 6), (66, 7), (67, 3), (67, 4), (68, 2),
                 (68, 3), (69, 1), (69, 2), (70, 3), (70, 5), (70, 8), (71, 7), (71, 9), (72, 9), (73, 1), (73, 2),
                 (73, 6), (73, 7), (73, 8), (74, 3), (74, 7), (74, 9), (75, 5), (75, 6), (75, 8), (76, 1), (76, 3),
                 (76, 6), (77, 6), (77, 9), (78, 1), (78, 2), (78, 4), (78, 6), (78, 9), (79, 2), (79, 5), (79, 6),
                 (79, 8), (80, 3), (80, 5), (80, 6), (80, 7), (81, 9), (82, 2), (82, 3), (82, 5), (82, 6), (82, 9),
                 (83, 1), (83, 5), (84, 1), (84, 4), (84, 5), (84, 7), (85, 1), (85, 2), (85, 3), (85, 4), (85, 5),
                 (85, 6), (85, 9), (86, 2))
$ Visualisation for usage
$  1  2
$  1  3
$  1  5
$  1  6
$  1  8
$  1 10
$  2  4
$  2  6
$  2  9
$  3  1
$  3  5
$  3  8
$  4  2
$  4  3
$  4  4
$  4  8
$  4 10
$  5  4
$  5  7
$  6  2
$  6  3
$  6  7
$  6 10
$  7  1
$  7  3
$  7  4
$  7  5
$  7  9
$  8  6
$  8  7
$  8  8
$  8  9
$  8 10
$  9  1
$  9  2
$  9  4
$  9  5
$  9  7
$  9 10
$ 10  2
$ 10  3
$ 11  3
$ 11  5
$ 11  7
$ 11  8
$ 11  9
$ 12  2
$ 12  3
$ 13  1
$ 13  2
$ 13  3
$ 13  4
$ 13  9
$ 14  1
$ 14  4
$ 14  6
$ 14  8
$ 14 10
$ 15  3
$ 15  5
$ 15 10
$ 16  6
$ 16  8
$ 17  7
$ 18  1
$ 18  2
$ 18  3
$ 18  4
$ 18  5
$ 18  7
$ 18 10
$ 19  6
$ 19  8
$ 19 10
$ 20  1
$ 20  7
$ 21  1
$ 21  2
$ 22  1
$ 22  2
$ 22  9
$ 23  1
$ 23  3
$ 24  5
$ 24  6
$ 24  9
$ 25  2
$ 25  3
$ 25  4
$ 25  7
$ 25  8
$ 25  9
$ 26  1
$ 26  3
$ 26  4
$ 26  5
$ 26  8
$ 27  1
$ 27  2
$ 27  9
$ 27 10
$ 28  1
$ 28  3
$ 28  4
$ 28  5
$ 28  6
$ 28  7
$ 28  8
$ 29  1
$ 29  3
$ 29  5
$ 29  8
$ 29  9
$ 29 10
$ 30  2
$ 30  3
$ 30  4
$ 30  7
$ 30  9
$ 31  1
$ 31  2
$ 31  7
$ 31  9
$ 32  2
$ 32  6
$ 32  8
$ 32  9
$ 33  2
$ 33  8
$ 33  9
$ 34  1
$ 34  3
$ 34  7
$ 35  3
$ 35  4
$ 35  6
$ 35  7
$ 36  7
$ 36  8
$ 36  9
$ 36 10
$ 37  3
$ 37  6
$ 37  7
$ 37  8
$ 37  9
$ 37 10
$ 38  1
$ 38  3
$ 38  5
$ 38  6
$ 38  7
$ 38  8
$ 38 10
$ 39  1
$ 39  4
$ 39  5
$ 39  6
$ 39  7
$ 39 10
$ 40  2
$ 40  4
$ 40  5
$ 40  7
$ 40  8
$ 40 10
$ 41  2
$ 41  3
$ 41  8
$ 41  9
$ 42  9
$ 42 10
$ 43  2
$ 43  9
$ 44  1
$ 44  2
$ 44  7
$ 45  1
$ 45  2
$ 45  3
$ 46  2
$ 46  3
$ 46  4
$ 46  9
$ 46 10
$ 47  1
$ 47  2
$ 47  3
$ 47  5
$ 47  6
$ 47  7
$ 47  8
$ 47  9
$ 47 10
$ 48  1
$ 48  2
$ 48  3
$ 48  4
$ 48  6
$ 48  7
$ 49  1
$ 49  5
$ 49  6
$ 49  7
$ 49 10
$ 50  1
$ 50  4
$ 50  7
$ 50  9
$ 51  2
$ 51  4
$ 51  8
$ 52  5
$ 52  7
$ 52  8
$ 53  2
$ 53  3
$ 53  8
$ 53 10
$ 54  1
$ 54  4
$ 54  5
$ 54  6
$ 55  1
$ 55  2
$ 55  3
$ 55  4
$ 55  6
$ 55  9
$ 55 10
$ 56  2
$ 56  3
$ 56  5
$ 56  6
$ 57  2
$ 57  4
$ 57  7
$ 57  8
$ 57  9
$ 58  1
$ 58  3
$ 58  6
$ 58  7
$ 58  9
$ 58 10
$ 59  4
$ 59  6
$ 59  7
$ 59  8
$ 60  2
$ 60  4
$ 60  5
$ 60  7
$ 60 10
$ 61  4
$ 61  6
$ 61  8
$ 61  9
$ 62  4
$ 62  7
$ 62  8
$ 63  3
$ 63  4
$ 63  6
$ 63  8
$ 63  9
$ 64  2
$ 64  3
$ 64  6
$ 65  1
$ 65  7
$ 65  8
$ 66  1
$ 66  6
$ 66  7
$ 67  3
$ 67  4
$ 68  2
$ 68  3
$ 69  1
$ 69  2
$ 70  3
$ 70  5
$ 70  8
$ 71  7
$ 71  9
$ 72  9
$ 73  1
$ 73  2
$ 73  6
$ 73  7
$ 73  8
$ 74  3
$ 74  7
$ 74  9
$ 75  5
$ 75  6
$ 75  8
$ 76  1
$ 76  3
$ 76  6
$ 77  6
$ 77  9
$ 78  1
$ 78  2
$ 78  4
$ 78  6
$ 78  9
$ 79  2
$ 79  5
$ 79  6
$ 79  8
$ 80  3
$ 80  5
$ 80  6
$ 80  7
$ 81  9
$ 82  2
$ 82  3
$ 82  5
$ 82  6
$ 82  9
$ 83  1
$ 83  5
$ 84  1
$ 84  4
$ 84  5
$ 84  7
$ 85  1
$ 85  2
$ 85  3
$ 85  4
$ 85  5
$ 85  6
$ 85  9
$ 86  2

